{
  "Solver": "clingo version 5.7.1",
  "Input": [
    "../models/model.lp","clingo_input.lp"
  ],
  "Call": [
    {
      "Witnesses": [
        {
          "Value": [
            
          ],
          "Costs": [
            0
          ]
        },
        {
          "Value": [
            "assign(11,1)", "assign(10,0)", "assign(12,2)"
          ],
          "Costs": [
            -3
          ]
        },
        {
          "Value": [
            "assign(8,4)", "assign(7,3)", "assign(9,5)", "assign(11,1)", "assign(10,0)", "assign(12,2)"
          ],
          "Costs": [
            -6
          ]
        }
      ]
    }
  ],
  "Result": "OPTIMUM FOUND",
  "Models": {
    "Number": 3,
    "More": "no",
    "Optimum": "yes",
    "Optimal": 1,
    "Costs": [
      -6
    ]
  },
  "Calls": 1,
  "Time": {
    "Total": 0.001,
    "Solve": 0.000,
    "Model": 0.000,
    "Unsat": 0.000,
    "CPU": 0.001
  }
}
